
Gurobi 11.0.3 (linux64) logging started Sun Nov 24 01:52:03 2024

Set parameter LogFile to value "/home/yihong/Coding/OR_SUC/SUC_results_bigM100000_thread4/case24_ieee_rts_theta0.5_epsilon0.05_gurobi_seed1330000_num_gen100_N_WDR100_load_scaling_factor1_exact_T24quadra_cost.txt"
Set parameter TimeLimit to value 3600
Gurobi Optimizer version 11.0.3 build v11.0.3rc0 (linux64 - "Ubuntu 20.04.6 LTS")

CPU model: AMD EPYC 7532 32-Core Processor, instruction set [SSE2|AVX|AVX2]
Thread count: 64 physical cores, 128 logical processors, using up to 4 threads

Optimize a model with 57659 rows, 29961 columns and 1325658 nonzeros
Model fingerprint: 0x5aadeb07
Model has 2400 quadratic constraints
Variable types: 27461 continuous, 2500 integer (2500 binary)
Coefficient statistics:
  Matrix range     [3e-04, 1e+05]
  QMatrix range    [2e-03, 8e-03]
  QLMatrix range   [2e-01, 6e+01]
  Objective range  [1e+00, 1e+00]
  Bounds range     [1e+00, 1e+00]
  RHS range        [1e+00, 1e+05]
Presolve removed 47155 rows and 12722 columns
Presolve time: 0.39s
Presolved: 10504 rows, 17239 columns, 58968 nonzeros
Presolved model has 2400 quadratic constraint(s)
Variable types: 14752 continuous, 2487 integer (2487 binary)

Root relaxation: objective 5.014134e+04, 8865 iterations, 0.25 seconds (0.37 work units)

    Nodes    |    Current Node    |     Objective Bounds      |     Work
 Expl Unexpl |  Obj  Depth IntInf | Incumbent    BestBd   Gap | It/Node Time

     0     0 50141.3364    0   14          - 50141.3364      -     -    0s
     0     0 385790.663    0  723          - 385790.663      -     -    1s
     0     0 438508.946    0  722          - 438508.946      -     -    1s
     0     0 689165.499    0  649          - 689165.499      -     -    1s
     0     0 689593.919    0  475          - 689593.919      -     -    1s
     0     0 690305.247    0  355          - 690305.247      -     -    2s
     0     0 690306.007    0  355          - 690306.007      -     -    2s
     0     0 690306.307    0  355          - 690306.307      -     -    2s
     0     0 690306.442    0  355          - 690306.442      -     -    2s
     0     2 690315.223    0  355          - 690315.223      -     -    4s
   100   127 690532.977   23  250          - 690324.732      -  88.4    5s
H  661   369                    690713.30503 690324.732  0.06%  31.4    6s
*  661   369             183    690713.30503 690324.732  0.06%  31.4    6s

Cutting planes:
  Gomory: 11
  Implied bound: 287
  MIR: 68
  Flow cover: 93
  RLT: 1
  Relax-and-lift: 29

Explored 668 nodes (44911 simplex iterations) in 6.78 seconds (8.58 work units)
Thread count was 4 (of 128 available processors)

Solution count 2: 690713 690713 

Optimal solution found (tolerance 1.00e-03)
Warning: max constraint violation (3.2089e-07) exceeds tolerance
Best objective 6.907133050272e+05, best bound 6.903247318261e+05, gap 0.0563%
